data;

set J := 1 2 3 4 5 6 7 8 9 10 11 12 13 14 15 16 17 18 19 20 21 22 23 24 25 26 27 28 29 30 31 32 33 34 35 36 37 38 39 40 41 42 43 44 45 46 47 48 49 50 51 52 53 54 55 56 57 58 59 60 61 62 63 64 65 66 67 68 69 70 71 72 73 74 75 76 77 78 79 80 81 82 83 84 85 86 87 88 89 90 91 92 93 94 95 96 97 98 99 100 101 102 103 104 105 106 107 108 109 110 111 112 113 114 115 116 117 118 119 120 121 122 123 124 125 126 127 128 129 130 131 132 133 134 135 136 137 138 139 140 141 142 143 144 145 146 147 148 149 150 151 152 153 154 155 156 157 158 159 160 161 162 163 164 165 166 167 168 169 170 171 172 173 174 175 176 177 178 179 180 181 182 183 184 185 186 187 188 189 190 191 192 193 194 195 196 197 198 199 200 201 202 203 204 205 206 207 208 209 210 211 212 213 214 215 216 217 218 219 220 221 222 223 224 225 226 227 228 229 230 231 232 233 234 235 236 237 238 239 240 241 242 243 244 245 246 247 248 249 250 251 252 253 254 255 256 257 258 259 260 261 262 263 264 265 266 267 268 269 270 271 272 273 274 275 276 277 278 279 280 281 282 283 284 285 286 287 288 289 290 291 292 293 294 295 296 297 298 299 300;
set I := 1 2 3 4 5 6 7 8 9 10 11 12 13 14 15 16 17 18 19 20 21 22 23 24 25 26 27 28 29 30 31 32 33 34 35 36 37 38 39 40 41 42 43 44 45 46 47 48 49 50 51 52 53 54 55 56 57 58 59 60 61 62 63 64 65 66 67 68 69 70 71 72 73 74 75 76 77 78 79 80 81 82 83 84 85 86 87 88 89 90 91 92 93 94 95 96 97 98 99 100 101 102 103 104 105 106 107 108 109 110 111 112 113 114 115 116 117 118 119 120 121 122 123 124 125 126 127 128 129 130 131 132 133 134 135 136 137 138 139 140 141 142 143 144 145 146 147 148 149 150 151 152 153 154 155 156 157 158 159 160 161 162 163 164 165 166 167 168 169 170 171 172 173 174 175 176 177 178 179 180 181 182 183 184 185 186 187 188 189 190 191 192 193 194 195 196 197 198 199 200 201 202 203 204 205 206 207 208 209 210 211 212 213 214 215 216 217 218 219 220 221 222 223 224 225 226 227 228 229 230 231 232 233 234 235 236 237 238 239 240 241 242 243 244 245 246 247 248 249 250 251 252 253 254 255;

param p := 
    1 94
    2 145
    3 70
    4 62
    5 47
    6 92
    7 64
    8 30
    9 54
    10 97
    11 81
    12 127
    13 115
    14 13
    15 29
    16 141
    17 22
    18 11
    19 134
    20 8
    21 30
    22 36
    23 77
    24 61
    25 100
    26 47
    27 8
    28 38
    29 65
    30 152
    31 53
    32 151
    33 57
    34 47
    35 74
    36 150
    37 11
    38 45
    39 51
    40 121
    41 80
    42 127
    43 119
    44 144
    45 69
    46 98
    47 101
    48 50
    49 122
    50 121
    51 52
    52 118
    53 6
    54 29
    55 38
    56 145
    57 152
    58 5
    59 42
    60 57
    61 97
    62 83
    63 80
    64 118
    65 132
    66 104
    67 103
    68 150
    69 144
    70 16
    71 12
    72 27
    73 66
    74 113
    75 120
    76 108
    77 11
    78 2
    79 45
    80 34
    81 75
    82 102
    83 20
    84 15
    85 103
    86 125
    87 146
    88 82
    89 89
    90 121
    91 143
    92 25
    93 139
    94 124
    95 79
    96 129
    97 20
    98 73
    99 42
    100 131
    101 13
    102 68
    103 150
    104 81
    105 67
    106 42
    107 110
    108 151
    109 84
    110 100
    111 36
    112 112
    113 53
    114 137
    115 112
    116 78
    117 48
    118 83
    119 132
    120 108
    121 109
    122 149
    123 122
    124 68
    125 115
    126 33
    127 36
    128 151
    129 148
    130 55
    131 82
    132 146
    133 103
    134 10
    135 118
    136 136
    137 41
    138 144
    139 83
    140 80
    141 36
    142 40
    143 10
    144 132
    145 132
    146 92
    147 69
    148 67
    149 46
    150 23
    151 125
    152 140
    153 140
    154 28
    155 56
    156 72
    157 124
    158 102
    159 127
    160 77
    161 137
    162 25
    163 148
    164 74
    165 1
    166 103
    167 141
    168 69
    169 123
    170 57
    171 118
    172 153
    173 114
    174 151
    175 141
    176 99
    177 45
    178 44
    179 151
    180 112
    181 99
    182 56
    183 145
    184 9
    185 20
    186 103
    187 101
    188 124
    189 65
    190 9
    191 130
    192 95
    193 87
    194 100
    195 101
    196 32
    197 66
    198 62
    199 41
    200 131
    201 52
    202 7
    203 83
    204 33
    205 38
    206 93
    207 60
    208 108
    209 147
    210 105
    211 131
    212 10
    213 3
    214 140
    215 61
    216 127
    217 127
    218 69
    219 54
    220 42
    221 148
    222 2
    223 97
    224 118
    225 141
    226 109
    227 120
    228 131
    229 35
    230 54
    231 24
    232 54
    233 127
    234 39
    235 28
    236 119
    237 19
    238 121
    239 77
    240 119
    241 146
    242 126
    243 113
    244 86
    245 82
    246 146
    247 85
    248 25
    249 145
    250 8
    251 114
    252 105
    253 45
    254 101
    255 59
    256 121
    257 32
    258 22
    259 47
    260 53
    261 133
    262 113
    263 70
    264 10
    265 135
    266 4
    267 66
    268 56
    269 109
    270 53
    271 58
    272 94
    273 6
    274 16
    275 117
    276 150
    277 125
    278 83
    279 3
    280 77
    281 139
    282 7
    283 27
    284 133
    285 81
    286 98
    287 11
    288 73
    289 20
    290 25
    291 34
    292 74
    293 44
    294 59
    295 64
    296 10
    297 6
    298 3
    299 95
    300 121;

param r := 
    1 156
    2 185
    3 46
    4 121
    5 52
    6 163
    7 110
    8 47
    9 83
    10 98
    11 38
    12 91
    13 107
    14 79
    15 146
    16 70
    17 168
    18 7
    19 127
    20 106
    21 69
    22 50
    23 148
    24 18
    25 91
    26 170
    27 69
    28 20
    29 8
    30 143
    31 12
    32 137
    33 173
    34 163
    35 16
    36 173
    37 92
    38 29
    39 109
    40 79
    41 19
    42 107
    43 161
    44 23
    45 153
    46 185
    47 195
    48 7
    49 72
    50 152
    51 161
    52 13
    53 44
    54 72
    55 69
    56 175
    57 128
    58 130
    59 75
    60 8
    61 92
    62 112
    63 43
    64 132
    65 123
    66 148
    67 39
    68 147
    69 95
    70 192
    71 179
    72 156
    73 36
    74 55
    75 42
    76 142
    77 150
    78 134
    79 22
    80 178
    81 107
    82 70
    83 130
    84 95
    85 147
    86 26
    87 143
    88 21
    89 36
    90 160
    91 147
    92 49
    93 47
    94 115
    95 111
    96 52
    97 100
    98 146
    99 124
    100 160
    101 59
    102 5
    103 33
    104 144
    105 156
    106 66
    107 54
    108 187
    109 167
    110 130
    111 46
    112 103
    113 60
    114 109
    115 66
    116 61
    117 2
    118 60
    119 164
    120 66
    121 116
    122 189
    123 55
    124 51
    125 108
    126 171
    127 137
    128 76
    129 20
    130 179
    131 188
    132 42
    133 83
    134 152
    135 86
    136 153
    137 4
    138 125
    139 155
    140 84
    141 190
    142 108
    143 78
    144 60
    145 117
    146 163
    147 21
    148 177
    149 152
    150 68
    151 198
    152 158
    153 168
    154 111
    155 138
    156 141
    157 146
    158 191
    159 134
    160 60
    161 49
    162 168
    163 82
    164 114
    165 10
    166 32
    167 56
    168 172
    169 158
    170 192
    171 116
    172 113
    173 98
    174 187
    175 27
    176 165
    177 105
    178 27
    179 183
    180 169
    181 90
    182 42
    183 86
    184 83
    185 190
    186 160
    187 139
    188 141
    189 33
    190 53
    191 54
    192 180
    193 118
    194 178
    195 82
    196 67
    197 174
    198 94
    199 88
    200 103
    201 15
    202 72
    203 86
    204 128
    205 197
    206 184
    207 95
    208 33
    209 14
    210 195
    211 92
    212 172
    213 113
    214 63
    215 137
    216 2
    217 93
    218 161
    219 110
    220 186
    221 15
    222 62
    223 110
    224 65
    225 193
    226 28
    227 137
    228 101
    229 187
    230 129
    231 51
    232 69
    233 18
    234 160
    235 119
    236 165
    237 72
    238 67
    239 93
    240 39
    241 178
    242 190
    243 176
    244 81
    245 147
    246 63
    247 67
    248 76
    249 81
    250 10
    251 43
    252 182
    253 189
    254 59
    255 152
    256 67
    257 174
    258 65
    259 18
    260 199
    261 152
    262 45
    263 31
    264 105
    265 113
    266 144
    267 56
    268 177
    269 147
    270 113
    271 58
    272 65
    273 2
    274 152
    275 81
    276 25
    277 88
    278 32
    279 44
    280 183
    281 142
    282 63
    283 118
    284 157
    285 160
    286 152
    287 92
    288 49
    289 84
    290 163
    291 70
    292 139
    293 121
    294 66
    295 40
    296 110
    297 178
    298 165
    299 89
    300 55;

param T := 153;
param R := 199;
param M := 1000000;

end;